NAME : a100
COMMENT : drilling problem (Ludwig)
TYPE : TSP
DIMENSION : 100
EDGE_WEIGHT_TYPE : EUC_2D
NODE_COORD_SECTION
  1 288 149
  2 288 129
  3 270 133
  4 256 141
  5 256 157
  6 246 157
  7 236 169
  8 228 169
  9 228 161
 10 220 169
 11 212 169
 12 204 169
 13 196 169
 14 188 169
 15 196 161
 16 188 145
 17 172 145
 18 164 145
 19 156 145
 20 148 145
 21 140 145
 22 148 169
 23 164 169
 24 172 169
 25 156 169
 26 140 169
 27 132 169
 28 124 169
 29 116 161
 30 104 153
 31 104 161
 32 104 169
 33  90 165
 34  80 157
 35  64 157
 36  64 165
 37  56 169
 38  56 161
 39  56 153
 40  56 145
 41  56 137
 42  56 129
 43  56 121
 44  40 121
 45  40 129
 46  40 137
 47  40 145
 48  40 153
 49  40 161
 50  40 169
 51  32 169
 52  32 161
 53  32 153
 54  32 145
 55  32 137
 56  32 129
 57  32 121
 58  32 113
 59  40 113
 60  56 113
 61  56 105
 62  48  99
 63  40  99
 64  32  97
 65  32  89
 66  24  89
 67  16  97
 68  16 109
 69   8 109
 70   8  97
 71   8  89
 72   8  81
 73   8  73
 74   8  65
 75   8  57
 76  16  57
 77   8  49
 78   8  41
 79  24  45
 80  32  41
 81  32  49
 82  32  57
 83  32  65
 84  32  73
 85  32  81
 86  40  83
 87  40  73
 88  40  63
 89  40  51
 90  44  43
 91  44  35
 92  44  27
 93  32  25
 94  24  25
 95  16  25
 96  16  17
 97  24  17
 98  32  17
 99  44  11
100  56   9
EOF
